p cnf 40 385
1 6 11 16 21 26 31 36 0
2 7 12 17 22 27 32 37 0
3 8 13 18 23 28 33 38 0
4 9 14 19 24 29 34 39 0
5 10 15 20 25 30 35 40 0
-1 -17 0
-1 -18 0
-1 -19 0
-1 -20 0
-2 -16 0
-2 -18 0
-2 -19 0
-2 -20 0
-3 -16 0
-3 -17 0
-3 -19 0
-3 -20 0
-4 -16 0
-4 -17 0
-4 -18 0
-4 -20 0
-5 -16 0
-5 -17 0
-5 -18 0
-5 -19 0
-1 -32 0
-1 -33 0
-1 -34 0
-1 -35 0
-2 -31 0
-2 -33 0
-2 -34 0
-2 -35 0
-3 -31 0
-3 -32 0
-3 -34 0
-3 -35 0
-4 -31 0
-4 -32 0
-4 -33 0
-4 -35 0
-5 -31 0
-5 -32 0
-5 -33 0
-5 -34 0
-6 -12 0
-6 -13 0
-6 -14 0
-6 -15 0
-7 -11 0
-7 -13 0
-7 -14 0
-7 -15 0
-8 -11 0
-8 -12 0
-8 -14 0
-8 -15 0
-9 -11 0
-9 -12 0
-9 -13 0
-9 -15 0
-10 -11 0
-10 -12 0
-10 -13 0
-10 -14 0
-6 -32 0
-6 -33 0
-6 -34 0
-6 -35 0
-7 -31 0
-7 -33 0
-7 -34 0
-7 -35 0
-8 -31 0
-8 -32 0
-8 -34 0
-8 -35 0
-9 -31 0
-9 -32 0
-9 -33 0
-9 -35 0
-10 -31 0
-10 -32 0
-10 -33 0
-10 -34 0
-6 -37 0
-6 -38 0
-6 -39 0
-6 -40 0
-7 -36 0
-7 -38 0
-7 -39 0
-7 -40 0
-8 -36 0
-8 -37 0
-8 -39 0
-8 -40 0
-9 -36 0
-9 -37 0
-9 -38 0
-9 -40 0
-10 -36 0
-10 -37 0
-10 -38 0
-10 -39 0
-11 -32 0
-11 -33 0
-11 -34 0
-11 -35 0
-12 -31 0
-12 -33 0
-12 -34 0
-12 -35 0
-13 -31 0
-13 -32 0
-13 -34 0
-13 -35 0
-14 -31 0
-14 -32 0
-14 -33 0
-14 -35 0
-15 -31 0
-15 -32 0
-15 -33 0
-15 -34 0
-16 -27 0
-16 -28 0
-16 -29 0
-16 -30 0
-17 -26 0
-17 -28 0
-17 -29 0
-17 -30 0
-18 -26 0
-18 -27 0
-18 -29 0
-18 -30 0
-19 -26 0
-19 -27 0
-19 -28 0
-19 -30 0
-20 -26 0
-20 -27 0
-20 -28 0
-20 -29 0
-21 -32 0
-21 -33 0
-21 -34 0
-21 -35 0
-22 -31 0
-22 -33 0
-22 -34 0
-22 -35 0
-23 -31 0
-23 -32 0
-23 -34 0
-23 -35 0
-24 -31 0
-24 -32 0
-24 -33 0
-24 -35 0
-25 -31 0
-25 -32 0
-25 -33 0
-25 -34 0
-41 -7 0
-41 -8 0
-41 -9 0
-41 -10 0
-42 -6 0
-42 -8 0
-42 -9 0
-42 -10 0
-43 -6 0
-43 -7 0
-43 -9 0
-43 -10 0
-44 -6 0
-44 -7 0
-44 -8 0
-44 -10 0
-45 -6 0
-45 -7 0
-45 -8 0
-45 -9 0
-41 -12 0
-41 -13 0
-41 -14 0
-41 -15 0
-42 -11 0
-42 -13 0
-42 -14 0
-42 -15 0
-43 -11 0
-43 -12 0
-43 -14 0
-43 -15 0
-44 -11 0
-44 -12 0
-44 -13 0
-44 -15 0
-45 -11 0
-45 -12 0
-45 -13 0
-45 -14 0
-41 -17 0
-41 -18 0
-41 -19 0
-41 -20 0
-42 -16 0
-42 -18 0
-42 -19 0
-42 -20 0
-43 -16 0
-43 -17 0
-43 -19 0
-43 -20 0
-44 -16 0
-44 -17 0
-44 -18 0
-44 -20 0
-45 -16 0
-45 -17 0
-45 -18 0
-45 -19 0
-41 -22 0
-41 -23 0
-41 -24 0
-41 -25 0
-42 -21 0
-42 -23 0
-42 -24 0
-42 -25 0
-43 -21 0
-43 -22 0
-43 -24 0
-43 -25 0
-44 -21 0
-44 -22 0
-44 -23 0
-44 -25 0
-45 -21 0
-45 -22 0
-45 -23 0
-45 -24 0
-41 -27 0
-41 -28 0
-41 -29 0
-41 -30 0
-42 -26 0
-42 -28 0
-42 -29 0
-42 -30 0
-43 -26 0
-43 -27 0
-43 -29 0
-43 -30 0
-44 -26 0
-44 -27 0
-44 -28 0
-44 -30 0
-45 -26 0
-45 -27 0
-45 -28 0
-45 -29 0
-41 -32 0
-41 -33 0
-41 -34 0
-41 -35 0
-42 -31 0
-42 -33 0
-42 -34 0
-42 -35 0
-43 -31 0
-43 -32 0
-43 -34 0
-43 -35 0
-44 -31 0
-44 -32 0
-44 -33 0
-44 -35 0
-45 -31 0
-45 -32 0
-45 -33 0
-45 -34 0
-41 -37 0
-41 -38 0
-41 -39 0
-41 -40 0
-42 -36 0
-42 -38 0
-42 -39 0
-42 -40 0
-43 -36 0
-43 -37 0
-43 -39 0
-43 -40 0
-44 -36 0
-44 -37 0
-44 -38 0
-44 -40 0
-45 -36 0
-45 -37 0
-45 -38 0
-45 -39 0
-46 -12 0
-46 -13 0
-46 -14 0
-46 -15 0
-47 -11 0
-47 -13 0
-47 -14 0
-47 -15 0
-48 -11 0
-48 -12 0
-48 -14 0
-48 -15 0
-49 -11 0
-49 -12 0
-49 -13 0
-49 -15 0
-50 -11 0
-50 -12 0
-50 -13 0
-50 -14 0
-46 -17 0
-46 -18 0
-46 -19 0
-46 -20 0
-47 -16 0
-47 -18 0
-47 -19 0
-47 -20 0
-48 -16 0
-48 -17 0
-48 -19 0
-48 -20 0
-49 -16 0
-49 -17 0
-49 -18 0
-49 -20 0
-50 -16 0
-50 -17 0
-50 -18 0
-50 -19 0
-46 -22 0
-46 -23 0
-46 -24 0
-46 -25 0
-47 -21 0
-47 -23 0
-47 -24 0
-47 -25 0
-48 -21 0
-48 -22 0
-48 -24 0
-48 -25 0
-49 -21 0
-49 -22 0
-49 -23 0
-49 -25 0
-50 -21 0
-50 -22 0
-50 -23 0
-50 -24 0
-46 -27 0
-46 -28 0
-46 -29 0
-46 -30 0
-47 -26 0
-47 -28 0
-47 -29 0
-47 -30 0
-48 -26 0
-48 -27 0
-48 -29 0
-48 -30 0
-49 -26 0
-49 -27 0
-49 -28 0
-49 -30 0
-50 -26 0
-50 -27 0
-50 -28 0
-50 -29 0
-46 -32 0
-46 -33 0
-46 -34 0
-46 -35 0
-47 -31 0
-47 -33 0
-47 -34 0
-47 -35 0
-48 -31 0
-48 -32 0
-48 -34 0
-48 -35 0
-49 -31 0
-49 -32 0
-49 -33 0
-49 -35 0
-50 -31 0
-50 -32 0
-50 -33 0
-50 -34 0
-46 -37 0
-46 -38 0
-46 -39 0
-46 -40 0
-47 -36 0
-47 -38 0
-47 -39 0
-47 -40 0
-48 -36 0
-48 -37 0
-48 -39 0
-48 -40 0
-49 -36 0
-49 -37 0
-49 -38 0
-49 -40 0
-50 -36 0
-50 -37 0
-50 -38 0
-50 -39 0
-51 -17 0
-51 -18 0
-51 -19 0
-51 -20 0
-52 -16 0
-52 -18 0
-52 -19 0
-52 -20 0
-53 -16 0
-53 -17 0
-53 -19 0
-53 -20 0
-54 -16 0
-54 -17 0
-54 -18 0
-54 -20 0
-55 -16 0
-55 -17 0
-55 -18 0
-55 -19 0
-51 -22 0
-51 -23 0
-51 -24 0
-51 -25 0
-52 -21 0
-52 -23 0
-52 -24 0
-52 -25 0
-53 -21 0
-53 -22 0
-53 -24 0
-53 -25 0
-54 -21 0
-54 -22 0
-54 -23 0
-54 -25 0
-55 -21 0
-55 -22 0
-55 -23 0
-55 -24 0
-51 -27 0
-51 -28 0
-51 -29 0
-51 -30 0
-52 -26 0
-52 -28 0
-52 -29 0
-52 -30 0
-53 -26 0
-53 -27 0
-53 -29 0
-53 -30 0
-54 -26 0
-54 -27 0
-54 -28 0
-54 -30 0
-55 -26 0
-55 -27 0
-55 -28 0
-55 -29 0
-51 -32 0
-51 -33 0
-51 -34 0
-51 -35 0
-52 -31 0
-52 -33 0
-52 -34 0
-52 -35 0
-53 -31 0
-53 -32 0
-53 -34 0
-53 -35 0
-54 -31 0
-54 -32 0
-54 -33 0
-54 -35 0
-55 -31 0
-55 -32 0
-55 -33 0
-55 -34 0
-51 -37 0
-51 -38 0
-51 -39 0
-51 -40 0
-52 -36 0
-52 -38 0
-52 -39 0
-52 -40 0
-53 -36 0
-53 -37 0
-53 -39 0
-53 -40 0
-54 -36 0
-54 -37 0
-54 -38 0
-54 -40 0
-55 -36 0
-55 -37 0
-55 -38 0
-55 -39 0
-56 -22 0
-56 -23 0
-56 -24 0
-56 -25 0
-57 -21 0
-57 -23 0
-57 -24 0
-57 -25 0
-58 -21 0
-58 -22 0
-58 -24 0
-58 -25 0
-59 -21 0
-59 -22 0
-59 -23 0
-59 -25 0
-60 -21 0
-60 -22 0
-60 -23 0
-60 -24 0
-56 -27 0
-56 -28 0
-56 -29 0
-56 -30 0
-57 -26 0
-57 -28 0
-57 -29 0
-57 -30 0
-58 -26 0
-58 -27 0
-58 -29 0
-58 -30 0
-59 -26 0
-59 -27 0
-59 -28 0
-59 -30 0
-60 -26 0
-60 -27 0
-60 -28 0
-60 -29 0
-56 -32 0
-56 -33 0
-56 -34 0
-56 -35 0
-57 -31 0
-57 -33 0
-57 -34 0
-57 -35 0
-58 -31 0
-58 -32 0
-58 -34 0
-58 -35 0
-59 -31 0
-59 -32 0
-59 -33 0
-59 -35 0
-60 -31 0
-60 -32 0
-60 -33 0
-60 -34 0
-56 -37 0
-56 -38 0
-56 -39 0
-56 -40 0
-57 -36 0
-57 -38 0
-57 -39 0
-57 -40 0
-58 -36 0
-58 -37 0
-58 -39 0
-58 -40 0
-59 -36 0
-59 -37 0
-59 -38 0
-59 -40 0
-60 -36 0
-60 -37 0
-60 -38 0
-60 -39 0
-61 -27 0
-61 -28 0
-61 -29 0
-61 -30 0
-62 -26 0
-62 -28 0
-62 -29 0
-62 -30 0
-63 -26 0
-63 -27 0
-63 -29 0
-63 -30 0
-64 -26 0
-64 -27 0
-64 -28 0
-64 -30 0
-65 -26 0
-65 -27 0
-65 -28 0
-65 -29 0
-61 -32 0
-61 -33 0
-61 -34 0
-61 -35 0
-62 -31 0
-62 -33 0
-62 -34 0
-62 -35 0
-63 -31 0
-63 -32 0
-63 -34 0
-63 -35 0
-64 -31 0
-64 -32 0
-64 -33 0
-64 -35 0
-65 -31 0
-65 -32 0
-65 -33 0
-65 -34 0
-61 -37 0
-61 -38 0
-61 -39 0
-61 -40 0
-62 -36 0
-62 -38 0
-62 -39 0
-62 -40 0
-63 -36 0
-63 -37 0
-63 -39 0
-63 -40 0
-64 -36 0
-64 -37 0
-64 -38 0
-64 -40 0
-65 -36 0
-65 -37 0
-65 -38 0
-65 -39 0
-66 -32 0
-66 -33 0
-66 -34 0
-66 -35 0
-67 -31 0
-67 -33 0
-67 -34 0
-67 -35 0
-68 -31 0
-68 -32 0
-68 -34 0
-68 -35 0
-69 -31 0
-69 -32 0
-69 -33 0
-69 -35 0
-70 -31 0
-70 -32 0
-70 -33 0
-70 -34 0
-66 -37 0
-66 -38 0
-66 -39 0
-66 -40 0
-67 -36 0
-67 -38 0
-67 -39 0
-67 -40 0
-68 -36 0
-68 -37 0
-68 -39 0
-68 -40 0
-69 -36 0
-69 -37 0
-69 -38 0
-69 -40 0
-70 -36 0
-70 -37 0
-70 -38 0
-70 -39 0
-71 -37 0
-71 -38 0
-71 -39 0
-71 -40 0
-72 -36 0
-72 -38 0
-72 -39 0
-72 -40 0
-73 -36 0
-73 -37 0
-73 -39 0
-73 -40 0
-74 -36 0
-74 -37 0
-74 -38 0
-74 -40 0
-75 -36 0
-75 -37 0
-75 -38 0
-75 -39 0
-1 -6 0
-1 -11 0
-1 -16 0
-1 -21 0
-1 -26 0
-1 -31 0
-1 -36 0
-2 -7 0
-2 -12 0
-2 -17 0
-2 -22 0
-2 -27 0
-2 -32 0
-2 -37 0
-3 -8 0
-3 -13 0
-3 -18 0
-3 -23 0
-3 -28 0
-3 -33 0
-3 -38 0
-4 -9 0
-4 -14 0
-4 -19 0
-4 -24 0
-4 -29 0
-4 -34 0
-4 -39 0
-5 -10 0
-5 -15 0
-5 -20 0
-5 -25 0
-5 -30 0
-5 -35 0
-5 -40 0
-6 -11 0
-6 -16 0
-6 -21 0
-6 -26 0
-6 -31 0
-6 -36 0
-7 -12 0
-7 -17 0
-7 -22 0
-7 -27 0
-7 -32 0
-7 -37 0
-8 -13 0
-8 -18 0
-8 -23 0
-8 -28 0
-8 -33 0
-8 -38 0
-9 -14 0
-9 -19 0
-9 -24 0
-9 -29 0
-9 -34 0
-9 -39 0
-10 -15 0
-10 -20 0
-10 -25 0
-10 -30 0
-10 -35 0
-10 -40 0
-11 -16 0
-11 -21 0
-11 -26 0
-11 -31 0
-11 -36 0
-12 -17 0
-12 -22 0
-12 -27 0
-12 -32 0
-12 -37 0
-13 -18 0
-13 -23 0
-13 -28 0
-13 -33 0
-13 -38 0
-14 -19 0
-14 -24 0
-14 -29 0
-14 -34 0
-14 -39 0
-15 -20 0
-15 -25 0
-15 -30 0
-15 -35 0
-15 -40 0
-16 -21 0
-16 -26 0
-16 -31 0
-16 -36 0
-17 -22 0
-17 -27 0
-17 -32 0
-17 -37 0
-18 -23 0
-18 -28 0
-18 -33 0
-18 -38 0
-19 -24 0
-19 -29 0
-19 -34 0
-19 -39 0
-20 -25 0
-20 -30 0
-20 -35 0
-20 -40 0
-21 -26 0
-21 -31 0
-21 -36 0
-22 -27 0
-22 -32 0
-22 -37 0
-23 -28 0
-23 -33 0
-23 -38 0
-24 -29 0
-24 -34 0
-24 -39 0
-25 -30 0
-25 -35 0
-25 -40 0
-26 -31 0
-26 -36 0
-27 -32 0
-27 -37 0
-28 -33 0
-28 -38 0
-29 -34 0
-29 -39 0
-30 -35 0
-30 -40 0
-31 -36 0
-32 -37 0
-33 -38 0
-34 -39 0
-35 -40 0
-1 -2 0
-1 -3 0
-1 -4 0
-1 -5 0
-2 -3 0
-2 -4 0
-2 -5 0
-3 -4 0
-3 -5 0
-4 -5 0
-6 -7 0
-6 -8 0
-6 -9 0
-6 -10 0
-7 -8 0
-7 -9 0
-7 -10 0
-8 -9 0
-8 -10 0
-9 -10 0
-11 -12 0
-11 -13 0
-11 -14 0
-11 -15 0
-12 -13 0
-12 -14 0
-12 -15 0
-13 -14 0
-13 -15 0
-14 -15 0
-16 -17 0
-16 -18 0
-16 -19 0
-16 -20 0
-17 -18 0
-17 -19 0
-17 -20 0
-18 -19 0
-18 -20 0
-19 -20 0
-21 -22 0
-21 -23 0
-21 -24 0
-21 -25 0
-22 -23 0
-22 -24 0
-22 -25 0
-23 -24 0
-23 -25 0
-24 -25 0
-26 -27 0
-26 -28 0
-26 -29 0
-26 -30 0
-27 -28 0
-27 -29 0
-27 -30 0
-28 -29 0
-28 -30 0
-29 -30 0
-31 -32 0
-31 -33 0
-31 -34 0
-31 -35 0
-32 -33 0
-32 -34 0
-32 -35 0
-33 -34 0
-33 -35 0
-34 -35 0
-36 -37 0
-36 -38 0
-36 -39 0
-36 -40 0
-37 -38 0
-37 -39 0
-37 -40 0
-38 -39 0
-38 -40 0
-39 -40 0
